p cnf 7230 17
-2816 -3274 3403 0
-2822 -3280 -3408 0
-2098 -2820 -3406 0
-2096 -2818 -3404 0
2822 -3409 0
2098 -3407 0
2096 -3405 0
3408 3409 0
3406 3407 0
3404 3405 0
3280 -3409 0
2820 -3407 0
2818 -3405 0
-3402 -3403 0
2838 -3411 0
2824 -3411 0
3402 3403 0
